27.78 0.11 2.35 19.17 0.22 3.8 11.72 0.26 2.3 28.28 0.13 2.82 13.72 0.23 2.11 10.48 0.21 4.28
18.56 0.12 3.94 24.55 0.28 2.92 21.05 0.18 3.19 20.65 0.22 3.17 24.57 0.14 3.62 24.15 0.3 4.04
12.11 0.26 3.07 18.1 0.17 4.94 11.89 0.23 4.91 24.51 0.24 2.62 21.99 0.18 3.33 29.65 0.13 4.52
18.47 0.29 3.0 27.78 0.12 2.19 20.04 0.18 4.1 17.9 0.19 2.55 16.72 0.18 2.34 16.77 0.16 4.13
23.13 0.22 4.73 15.04 0.22 3.87 24.62 0.3 2.38 24.01 0.12 3.34 26.95 0.13 4.53 23.06 0.15 4.02
